200
1000
491
488
487
479
479
474
473
470
469
469
468
468
465
463
462
462
459
457
457
453
451
449
448
446
444
442
440
438
433
433
432
430
427
426
426
423
421
417
415
413
413
411
410
410
410
409
408
408
407
406
404
403
402
401
400
399
397
391
391
389
388
387
387
387
386
384
382
377
377
375
373
373
373
372
372
369
366
365
364
363
363
363
359
357
356
351
350
350
350
348
347
346
338
335
333
331
330
330
328
328
326
325
323
322
322
320
317
316
311
307
306
306
305
301
300
297
296
296
292
289
289
288
285
276
275
274
273
272
268
266
265
264
262
257
257
256
255
255
255
255
252
249
248
245
243
243
241
237
236
236
235
232
231
228
228
226
226
225
224
223
223
223
221
218
216
208
206
206
205
204
203
202
202
202
196
194
193
193
193
190
190
189
189
188
187
186
183
182
181
179
179
178
172
171
171
171
169
169
168
167
